\ENCODING=ISO-8859-1
\Problem name: IloCplex

Minimize
 obj1: 3 x_a_0 + 2 x_a_1 + x_a_2 + 2 x_a_3 + x_a_4 + 2 x_a_5 + 2 x_a_6
       + 2 x_a_7 + x_a_8 + 3 x_a_9 + x_a_10 + 3 x_a_11 + 2 x_a_12 + x_a_13
       + 3 x_a_14 + x_a_15 + x_a_16 + 3 x_a_17 + 3 x_a_18 + 2 x_a_19 + 3 x_a_20
       + x_a_21 + 2 x_a_22 + 3 x_a_23 + 3 x_a_24 + 2 x_a_25 + x_a_26 + 2 x_a_27
       + x_a_28 + x_a_29 + 3 x_a_30 + x_a_31 + x_a_32 + 2 x_a_33 + 2 x_a_34
       + 1000000000 x_a_35 + 1000000000 x_a_36 + 1000000000 x_a_37
       + 1000000000 x_a_38 + 1000000000 x_a_39 + 1000000000 x_a_40
       + 1000000000 x_a_41 + 1000000000 x_a_42 + 10000 x_a_43
Subject To
 c1:  y_a_35 + y_a_36 + y_a_37 + y_a_38 <= 7
 c2:  y_a_0 + y_a_1 + y_a_2  = 0
 c3:  - y_a_0 + y_a_3 + y_a_4 + y_a_5 + y_a_6 + y_a_7  = 0
 c4:  - y_a_36 - y_a_38 - y_a_3 + y_a_8 + y_a_9 + y_a_10 + y_a_11 + y_a_12  = 0
 c5:  - y_a_1 - y_a_4 - y_a_8 + y_a_13 + y_a_14 + y_a_15  = 0
 c6:  - y_a_13 + y_a_16 + y_a_17 + y_a_18 + y_a_19 + y_a_40 + y_a_42  = 0
 c7:  - y_a_5 + y_a_20 + y_a_21 + y_a_22 + y_a_23  = 0
 c8:  - y_a_9 - y_a_16 + y_a_24 + y_a_25  = 0
 c9:  - y_a_6 - y_a_10 + y_a_26 + y_a_27 + y_a_28 + y_a_29 + y_a_41  = 0
 c10: - y_a_2 - y_a_14 - y_a_26  = 0
 c11: - y_a_11 - y_a_17 + y_a_39  = 0
 c12: - y_a_12 + y_a_30 + y_a_31  = 0
 c13: - y_a_24 - y_a_30 + y_a_32 + y_a_33  = 0
 c14: - y_a_15 - y_a_20 + y_a_34  = 0
 c15: - y_a_7  = 0
 c16: - y_a_27 - y_a_31 - y_a_34  = 0
 c17: - y_a_35 - y_a_18 - y_a_21 - y_a_32  = 0
 c18: - y_a_37 - y_a_22 - y_a_25 - y_a_28  = 0
 c19: - y_a_19 - y_a_23 - y_a_29 - y_a_33  = 0
 c20: y_a_35 + y_a_36 + y_a_37 + y_a_38 - y_a_43  = 0
 c21: - y_a_40 - y_a_42 - y_a_41 - y_a_39 + y_a_43  = 0
 c22: y_a_0 + 6 x_a_0 <= 6
 c23: y_a_1 + 5 x_a_1 <= 5
 c24: y_a_2 + 42 x_a_2 <= 42
 c25: y_a_3 + 16 x_a_3 <= 16
 c26: y_a_4 + 17 x_a_4 <= 17
 c27: y_a_5 + 22 x_a_5 <= 22
 c28: y_a_6 + x_a_6 <= 1
 c29: y_a_7 + 41 x_a_7 <= 41
 c30: y_a_8 + 13 x_a_8 <= 13
 c31: y_a_9 + 22 x_a_9 <= 22
 c32: y_a_10 + 19 x_a_10 <= 19
 c33: y_a_11 + 8 x_a_11 <= 8
 c34: y_a_12 + 47 x_a_12 <= 47
 c35: y_a_13 + 8 x_a_13 <= 8
 c36: y_a_14 + 24 x_a_14 <= 24
 c37: y_a_15 + 18 x_a_15 <= 18
 c38: y_a_16 + 29 x_a_16 <= 29
 c39: y_a_17 + 28 x_a_17 <= 28
 c40: y_a_18 + 18 x_a_18 <= 18
 c41: y_a_19 + 15 x_a_19 <= 15
 c42: y_a_20 + 41 x_a_20 <= 41
 c43: y_a_21 + 18 x_a_21 <= 18
 c44: y_a_22 + x_a_22 <= 1
 c45: y_a_23 + 30 x_a_23 <= 30
 c46: y_a_24 + 45 x_a_24 <= 45
 c47: y_a_25 + 15 x_a_25 <= 15
 c48: y_a_26 + 22 x_a_26 <= 22
 c49: y_a_27 + 40 x_a_27 <= 40
 c50: y_a_28 + 31 x_a_28 <= 31
 c51: y_a_29 + 16 x_a_29 <= 16
 c52: y_a_30 + 12 x_a_30 <= 12
 c53: y_a_31 + 39 x_a_31 <= 39
 c54: y_a_32 + 23 x_a_32 <= 23
 c55: y_a_33 + 6 x_a_33 <= 6
 c56: y_a_34 + 29 x_a_34 <= 29
 c57: y_a_35 + 50000000 x_a_35 <= 50000000
 c58: y_a_36 + 50000000 x_a_36 <= 50000000
 c59: y_a_37 + 50000000 x_a_37 <= 50000000
 c60: y_a_38 + 50000000 x_a_38 <= 50000000
 c61: y_a_39 + 50000000 x_a_39 <= 50000000
 c62: y_a_40 + 50000000 x_a_40 <= 50000000
 c63: y_a_41 + 50000000 x_a_41 <= 50000000
 c64: y_a_42 + 50000000 x_a_42 <= 50000000
 c65: y_a_43 + 10000 x_a_43 <= 10000
Bounds
 0 <= x_a_0 <= 1
 0 <= x_a_1 <= 1
 0 <= x_a_2 <= 1
 0 <= x_a_3 <= 1
 0 <= x_a_4 <= 1
 0 <= x_a_5 <= 1
 0 <= x_a_6 <= 1
 0 <= x_a_7 <= 1
 0 <= x_a_8 <= 1
 0 <= x_a_9 <= 1
 0 <= x_a_10 <= 1
 0 <= x_a_11 <= 1
 0 <= x_a_12 <= 1
 0 <= x_a_13 <= 1
 0 <= x_a_14 <= 1
 0 <= x_a_15 <= 1
 0 <= x_a_16 <= 1
 0 <= x_a_17 <= 1
 0 <= x_a_18 <= 1
 0 <= x_a_19 <= 1
 0 <= x_a_20 <= 1
 0 <= x_a_21 <= 1
 0 <= x_a_22 <= 1
 0 <= x_a_23 <= 1
 0 <= x_a_24 <= 1
 0 <= x_a_25 <= 1
 0 <= x_a_26 <= 1
 0 <= x_a_27 <= 1
 0 <= x_a_28 <= 1
 0 <= x_a_29 <= 1
 0 <= x_a_30 <= 1
 0 <= x_a_31 <= 1
 0 <= x_a_32 <= 1
 0 <= x_a_33 <= 1
 0 <= x_a_34 <= 1
 0 <= x_a_35 <= 1
 0 <= x_a_36 <= 1
 0 <= x_a_37 <= 1
 0 <= x_a_38 <= 1
 0 <= x_a_39 <= 1
 0 <= x_a_40 <= 1
 0 <= x_a_41 <= 1
 0 <= x_a_42 <= 1
 0 <= x_a_43 <= 1
Binaries
 x_a_0  x_a_1  x_a_2  x_a_3  x_a_4  x_a_5  x_a_6  x_a_7  x_a_8  x_a_9  x_a_10 
 x_a_11  x_a_12  x_a_13  x_a_14  x_a_15  x_a_16  x_a_17  x_a_18  x_a_19 
 x_a_20  x_a_21  x_a_22  x_a_23  x_a_24  x_a_25  x_a_26  x_a_27  x_a_28 
 x_a_29  x_a_30  x_a_31  x_a_32  x_a_33  x_a_34  x_a_35  x_a_36  x_a_37 
 x_a_38  x_a_39  x_a_40  x_a_41  x_a_42  x_a_43 
End
